NAME: ACTUAL_TOURS/amz2209
TYPE: TOUR
COMMENT: RouteID_e912d629-8ad2-4879-8edc-b3b2f246596c
DIMENSION: 150
TOUR_SECTION
107
70
102
2
115
12
147
57
52
30
33
126
109
45
39
18
24
149
35
44
54
51
74
77
14
134
71
100
17
150
11
92
26
97
144
101
62
93
8
105
114
98
140
40
5
68
141
22
47
7
83
28
56
129
113
48
63
138
16
108
29
69
38
41
112
19
67
85
9
128
148
95
53
131
94
146
15
23
103
116
99
13
145
55
110
122
120
65
123
31
82
78
96
132
135
36
61
46
20
142
60
117
111
139
3
104
64
136
32
88
75
27
42
84
130
119
80
106
1
10
143
6
34
90
25
89
125
121
118
137
37
124
133
50
49
73
127
76
21
43
66
91
58
59
72
79
81
86
4
87
-1
EOF
